p wcnf 194 97 98 
1 126 105 0 
1 -173 -153 0 
1 45 131 0 
1 -163 21 0 
1 -152 -11 0 
1 -182 -159 0 
1 -123 -86 0 
1 39 -156 0 
1 -190 -186 0 
1 146 -84 0 
1 -140 128 0 
1 86 -20 0 
1 96 -174 0 
1 129 -11 0 
1 10 -135 0 
1 -54 11 0 
1 146 6 0 
1 -79 -97 0 
1 -115 7 0 
1 -3 141 0 
1 -130 -5 0 
1 149 -24 0 
1 79 -175 0 
1 -11 188 0 
1 -28 172 0 
1 -132 101 0 
1 157 10 0 
1 -85 90 0 
1 42 -61 0 
1 176 -76 0 
1 -166 -114 0 
1 -139 -63 0 
1 107 -10 0 
1 170 -140 0 
1 136 -25 0 
1 19 -68 0 
1 -4 -45 0 
1 -8 174 0 
1 -6 -190 0 
1 -175 -78 0 
1 -8 192 0 
1 -87 93 0 
1 194 111 0 
1 183 103 0 
1 -98 22 0 
1 192 161 0 
1 147 -142 0 
1 78 32 0 
1 149 -47 0 
1 89 -76 0 
1 55 3 0 
1 37 55 0 
1 93 90 0 
1 86 153 0 
1 -2 -187 0 
1 107 124 0 
1 -70 -92 0 
1 165 73 0 
1 -99 -58 0 
1 110 13 0 
1 -74 -144 0 
1 22 126 0 
1 94 -69 0 
1 -82 130 0 
1 19 103 0 
1 149 -92 0 
1 -28 83 0 
1 -178 -45 0 
1 61 189 0 
1 71 38 0 
1 5 -8 0 
1 -33 18 0 
1 -175 -48 0 
1 -159 19 0 
1 190 128 0 
1 45 -4 0 
1 132 88 0 
1 160 53 0 
1 -45 115 0 
1 -83 -190 0 
1 97 163 0 
1 -89 -97 0 
1 67 103 0 
1 146 103 0 
1 -165 64 0 
1 139 -27 0 
1 -118 73 0 
1 150 -82 0 
1 168 -77 0 
1 -36 -19 0 
1 -94 -30 0 
1 -66 -37 0 
1 119 31 0 
1 -160 169 0 
1 -41 -170 0 
1 129 69 0 
1 179 43 0 
